! PAL2
! RHF 6-31G
! PrintBasis

* xyz 0 1
H    0.0000    0.0000    0.0000
H    0.0000    0.0000    0.7400
*