! Freq BP86 Def2-TZVP Def2/J DefGrid2
! TightSCF
! LargePrint

%MaxCore 1000

* xyz 0 1
  C        0.002215        0.000000        0.000000
  O        1.210770       -0.000000       -0.000000
  H       -0.592190        0.947697       -0.000000
  H       -0.592190       -0.947697       -0.000000
*